
  14    0


   0   7 2 3 4 5 11 12 13 
   3   3 10 9 6 
  10   1 8 
   2   1 7 
  10   1 6 
  10   1 14
   6   1 14
  10   1 14
   8   1 14
   4   1 14
  10   1 14
   7   1 14
   7   1 14
   0   0 
